StudentsNr = 10;
InstructorsNr = 80;
DaysNr = 2;
SlotsPerDay = 10;
AvailabilitySlotsLenght = 5;
RoomNr = 1;
ProgrammNr = 1;
DegreeNr = 3;
RolesNr = 1;
CoursesNr = 2;
InstructorsProgramm = [{1}, {1}, {1}, {1}, {1}, {1}, {1}, {1}, {1}, {1}, {1}, {1}, {1}, {1}, {1}, {1}, {1}, {1}, {1}, {1}, {1}, {1}, {1}, {1}, {1}, {1}, {1}, {1}, {1}, {1}, {1}, {1}, {1}, {1}, {1}, {1}, {1}, {1}, {1}, {1}, {1}, {1}, {1}, {1}, {1}, {1}, {1}, {1}, {1}, {1}, {1}, {1}, {1}, {1}, {1}, {1}, {1}, {1}, {1}, {1}, {1}, {1}, {1}, {1}, {1}, {1}, {1}, {1}, {1}, {1}, {1}, {1}, {1}, {1}, {1}, {1}, {1}, {1}, {1}, {1}];
InstructorRolesPerProgramm = [|{2, 4, 6, 7, 8, 9, 10, 11, 12, 15, 16, 17, 21, 22, 25, 27, 29, 33, 34, 35, 37, 38, 39, 40, 42, 45, 46, 49, 50, 52, 53, 54, 55, 57, 58, 62, 65, 66, 67, 68, 70, 72, 74, 75, 78}|];
InstructorsAvailability = [|0, 1, 1, 1, |0, 1, 0, 1, |0, 1, 1, 1, |1, 1, 1, 1, |1, 1, 0, 0, |0, 1, 0, 1, |0, 0, 0, 1, |1, 1, 0, 1, |0, 1, 1, 1, |1, 0, 1, 0, |0, 0, 0, 0, |0, 0, 1, 0, |1, 1, 1, 1, |1, 1, 1, 1, |1, 1, 1, 1, |1, 1, 0, 1, |1, 1, 1, 0, |0, 0, 0, 0, |0, 1, 1, 1, |1, 1, 1, 1, |0, 1, 1, 1, |1, 1, 1, 1, |1, 1, 1, 1, |0, 0, 1, 1, |1, 1, 1, 1, |0, 1, 1, 1, |1, 1, 1, 1, |1, 1, 1, 1, |0, 1, 1, 1, |1, 1, 1, 0, |1, 1, 1, 1, |1, 1, 1, 1, |1, 1, 1, 1, |1, 1, 1, 0, |1, 0, 0, 0, |1, 0, 0, 0, |0, 0, 1, 1, |0, 1, 0, 0, |1, 1, 1, 1, |0, 1, 1, 1, |0, 0, 1, 1, |0, 1, 1, 1, |1, 0, 0, 1, |1, 0, 1, 1, |1, 1, 0, 1, |0, 0, 1, 1, |0, 0, 1, 0, |0, 1, 1, 1, |1, 1, 1, 1, |0, 1, 1, 1, |0, 1, 1, 0, |0, 0, 0, 0, |0, 0, 1, 0, |1, 1, 1, 1, |1, 1, 1, 1, |1, 1, 1, 0, |0, 0, 1, 1, |0, 0, 0, 1, |1, 1, 1, 1, |1, 0, 1, 1, |0, 0, 0, 1, |0, 1, 1, 1, |0, 1, 1, 1, |0, 0, 1, 1, |0, 1, 1, 1, |0, 1, 1, 1, |1, 1, 1, 1, |0, 0, 1, 1, |0, 1, 1, 1, |0, 1, 1, 1, |1, 1, 1, 1, |0, 1, 1, 1, |1, 1, 1, 0, |0, 1, 1, 1, |1, 1, 1, 1, |0, 1, 1, 0, |0, 0, 1, 1, |1, 1, 1, 0, |0, 1, 1, 1, |1, 1, 1, 1|];
StudentsProgramm = [1, 1, 1, 1, 1, 1, 1, 1, 1, 1];
StudentsDegree = [3, 1, 1, 1, 2, 2, 1, 1, 1, 1];
StudentsSupervisorId = [12, 63, 23, 41, 32, 49, 59, 55, 38, 49];
StudentsCourseIds = [{1}, {1}, {2}, {1}, {}, {}, {2}, {1}, {2}, {2}];
StudentsAvailability = [|0, 0, 0, 0, |0, 0, 0, 1, |0, 1, 1, 1, |0, 1, 1, 1, |1, 1, 1, 1, |0, 0, 1, 1, |0, 0, 1, 0, |0, 0, 0, 1, |0, 1, 0, 1, |1, 1, 1, 1|];
TheoryticalMinCard = [0, 0, 0, 1, 1, 0, 1, 0, 0, 0];
CoursesInstructorIds = [{1, 2, 3, 8, 10, 11, 13, 16, 19, 20, 25, 27, 28, 29, 30, 35, 37, 38, 39, 40, 42, 43, 46, 47, 48, 49, 50, 52, 53, 54, 55, 56, 57, 58, 59, 60, 61, 62, 63, 65, 66, 67, 69, 72, 75, 77, 78, 79}, {5, 8, 9, 10, 19, 22, 23, 25, 30, 33, 39, 41, 44, 49, 58, 61, 62, 64, 66, 67, 75}];
RolesDemands = [44];
RolesContinuity = [];
ExamLen = [2, 2, 2, 2, 2, 2, 2, 2, 2, 2];
LunchTsMinLen = 0;
LunchStarts = [4..7, 14..17];
SupervisorAvailable = 5;
OptimalLunchLenght = [1, 2];
OptimalStartTs = [2, 0];
OptimalFinishTs = [0, 9];
MinimizeRooms = 400;
RolesSoftContinuity = [|1|1|];
SameDegreeInRoom = 0;
Mergeability = 2;
